
Gurobi 11.0.0 (win64) logging started Sat Jun 15 09:49:55 2024

Set parameter LogFile to value "./GurobiLog/stage_2_iter_8.log"
Gurobi Optimizer version 11.0.0 build v11.0.0rc2 (win64 - Windows 10.0 (18363.2))

CPU model: Intel(R) Core(TM) i7-8700 CPU @ 3.20GHz, instruction set [SSE2|AVX|AVX2]
Thread count: 6 physical cores, 12 logical processors, using up to 1 threads

Optimize a model with 1489 rows, 20458 columns and 61696 nonzeros
Coefficient statistics:
  Matrix range     [1e-02, 7e+03]
  Objective range  [1e-01, 2e+05]
  Bounds range     [1e+00, 6e+05]
  RHS range        [1e+00, 6e+04]
LP warm-start: use basis
Iteration    Objective       Primal Inf.    Dual Inf.      Time
       0    2.1085563e+04   3.904432e+04   0.000000e+00      0s
      49    2.8433808e+04   0.000000e+00   0.000000e+00      0s

Solved in 49 iterations and 0.01 seconds (0.00 work units)
Optimal objective  2.843380778e+04

Gurobi 11.0.0 (win64) logging started Sat Jun 15 10:48:26 2024

Set parameter LogFile to value "./GurobiLog/stage_2_iter_8.log"
Gurobi Optimizer version 11.0.0 build v11.0.0rc2 (win64 - Windows 10.0 (18363.2))

CPU model: Intel(R) Core(TM) i7-8700 CPU @ 3.20GHz, instruction set [SSE2|AVX|AVX2]
Thread count: 6 physical cores, 12 logical processors, using up to 1 threads

Optimize a model with 1489 rows, 20458 columns and 65734 nonzeros
Coefficient statistics:
  Matrix range     [3e-03, 1e+04]
  Objective range  [1e-01, 2e+05]
  Bounds range     [2e+00, 6e+05]
  RHS range        [1e+00, 5e+04]
LP warm-start: use basis
Iteration    Objective       Primal Inf.    Dual Inf.      Time
       0    1.2024189e+04   9.834242e+03   0.000000e+00      0s
     257    2.6424195e+04   0.000000e+00   0.000000e+00      0s

Solved in 257 iterations and 0.01 seconds (0.01 work units)
Optimal objective  2.642419500e+04
